3 
4  19 44 
5  03 13 21 29 37 44 51 58 
6  05 13 23 31 38 46 53 
7  01 08 16 23 31 38 46 53 
8  01 08 16 23 31 38 46 53 
9  01 08 16 23 31 38 46 53 
10  01 08 16 23 31 38 46 53 
11  01 08 16 23 31 38 46 53 
12  01 08 16 23 31 38 46 53 
13  01 08 16 23 31 38 46 53 
14  01 08 16 23 31 38 46 53 
15  01 08 16 23 31 38 46 53 
16  01 08 16 23 31 38 46 53 
17  01 08 16 23 31 38 46 53 
18  01 08 16 23 31 38 46 53 
19  01 08 16 23 31 40 55 
20  10 25 38 53 
21  08 23 38 53 
22  08 23 38 55 
23 
